c File: instances/38_0.15_2.col
c
c Description: Random graph of size 38 vertices and P(0.15000000000000002) of edges between any two vertices.
p col 38 703
e 1 9
e 1 12
e 1 13
e 1 25
e 2 9
e 2 23
e 2 26
e 2 31
e 2 34
e 2 38
e 3 4
e 3 8
e 3 11
e 3 16
e 3 18
e 3 31
e 4 5
e 4 6
e 4 18
e 4 20
e 4 21
e 4 36
e 4 37
e 5 19
e 5 30
e 5 38
e 6 13
e 6 18
e 6 25
e 6 33
e 6 35
e 6 37
e 7 21
e 7 26
e 7 30
e 7 31
e 7 33
e 8 11
e 8 13
e 8 14
e 8 17
e 8 21
e 8 24
e 8 30
e 8 36
e 9 14
e 9 17
e 9 19
e 10 17
e 10 24
e 10 28
e 11 28
e 11 38
e 12 15
e 12 21
e 12 23
e 12 24
e 12 26
e 12 33
e 12 34
e 13 23
e 13 27
e 13 32
e 13 34
e 13 37
e 13 38
e 14 18
e 14 20
e 14 37
e 15 21
e 15 24
e 15 26
e 15 30
e 15 31
e 15 34
e 15 38
e 16 27
e 16 32
e 16 34
e 17 29
e 17 30
e 18 28
e 18 30
e 19 20
e 20 29
e 20 38
e 21 24
e 21 33
e 22 24
e 22 25
e 22 30
e 22 35
e 23 29
e 23 31
e 25 35
e 25 36
e 26 28
e 26 33
e 26 36
e 27 32
e 29 31
e 29 32
e 29 34
e 30 31
e 30 37
e 31 32
e 31 33
e 31 38
e 33 36
e 36 37
e 37 38